\ This file has been generated by DOcplex
\ ENCODING=ISO-8859-1
\Problem name: AMC Linear Optimization for 3ADMM-H

Minimize
 obj: x_0 + x_1 + x_2 + y_0 + y_1 + y_2 + u_0 + u_1
Subject To
 Constraint: 61 x_0 + 151 x_1 + 67 y_0 + 23 y_1 + 125 u_0 = 1148

Bounds
 0 <= x_0 <= 1
 0 <= x_1 <= 1
 0 <= x_2 <= 1
 0 <= y_0 <= 1
 0 <= y_1 <= 1
 0 <= y_2 <= 1

Binaries
 x_0 x_1 x_2 y_0 y_1 y_2
End
